
Gurobi 9.5.0 (win64) logging started Wed Jun 29 18:13:27 2022

Set parameter LogFile to value "../results/logs/log_socfb-Syracuse56_46_250_2022_06_29_18_13.log"
Gurobi Optimizer version 9.5.0 build v9.5.0rc5 (win64)
Thread count: 6 physical cores, 12 logical processors, using up to 12 threads
Optimize a model with 2835 rows, 27306 columns and 173405 nonzeros
Model fingerprint: 0xffac5dea
Variable types: 0 continuous, 27306 integer (27306 binary)
Coefficient statistics:
  Matrix range     [1e+00, 5e+01]
  Objective range  [1e+00, 1e+00]
  Bounds range     [1e+00, 1e+00]
  RHS range        [1e+00, 3e+02]
Found heuristic solution: objective 6985.0000000
Presolve removed 25 rows and 20770 columns
Presolve time: 0.12s
Presolved: 2810 rows, 6536 columns, 58025 nonzeros
Variable types: 0 continuous, 6536 integer (6289 binary)
Found heuristic solution: objective 7088.0000000

Root relaxation: objective 8.106675e+03, 3639 iterations, 0.48 seconds (0.52 work units)

    Nodes    |    Current Node    |     Objective Bounds      |     Work
 Expl Unexpl |  Obj  Depth IntInf | Incumbent    BestBd   Gap | It/Node Time

     0     0 8106.67496    0 1044 7088.00000 8106.67496  14.4%     -    0s
H    0     0                    7133.0000000 8106.67496  13.7%     -    0s
H    0     0                    7160.0000000 8106.67496  13.2%     -    0s
H    0     0                    7303.0000000 8106.67496  11.0%     -    1s
